c Mesh Graph
c 10 Rows, 10 columns, capacities in range [0, 100]
p max 102 290
n 1 s
n 102 t
a 1 11 300
a 1 10 300
a 1 9 300
a 1 8 300
a 1 7 300
a 1 6 300
a 1 5 300
a 1 4 300
a 1 3 300
a 1 2 300
a 2 13 55
a 2 12 42
a 2 21 83
a 3 14 53
a 3 13 63
a 3 12 92
a 4 15 85
a 4 14 68
a 4 13 3
a 5 16 86
a 5 15 24
a 5 14 45
a 6 17 5
a 6 16 33
a 6 15 56
a 7 18 61
a 7 17 8
a 7 16 2
a 8 19 99
a 8 18 77
a 8 17 27
a 9 20 74
a 9 19 18
a 9 18 4
a 10 21 58
a 10 20 9
a 10 19 41
a 11 12 46
a 11 21 4
a 11 20 53
a 12 23 87
a 12 22 86
a 12 31 36
a 13 24 2
a 13 23 29
a 13 22 42
a 14 25 69
a 14 24 31
a 14 23 46
a 15 26 44
a 15 25 27
a 15 24 30
a 16 27 77
a 16 26 82
a 16 25 15
a 17 28 84
a 17 27 35
a 17 26 19
a 18 29 60
a 18 28 13
a 18 27 32
a 19 30 29
a 19 29 17
a 19 28 30
a 20 31 89
a 20 30 57
a 20 29 55
a 21 22 92
a 21 31 61
a 21 30 13
a 22 33 29
a 22 32 96
a 22 41 58
a 23 34 57
a 23 33 89
a 23 32 96
a 24 35 87
a 24 34 34
a 24 33 97
a 25 36 13
a 25 35 63
a 25 34 18
a 26 37 47
a 26 36 29
a 26 35 61
a 27 38 81
a 27 37 100
a 27 36 37
a 28 39 94
a 28 38 31
a 28 37 72
a 29 40 10
a 29 39 12
a 29 38 84
a 30 41 18
a 30 40 66
a 30 39 64
a 31 32 30
a 31 41 78
a 31 40 53
a 32 43 25
a 32 42 87
a 32 51 96
a 33 44 65
a 33 43 83
a 33 42 25
a 34 45 98
a 34 44 31
a 34 43 81
a 35 46 12
a 35 45 48
a 35 44 20
a 36 47 92
a 36 46 9
a 36 45 32
a 37 48 91
a 37 47 97
a 37 46 30
a 38 49 73
a 38 48 69
a 38 47 11
a 39 50 84
a 39 49 4
a 39 48 4
a 40 51 2
a 40 50 67
a 40 49 65
a 41 42 31
a 41 51 19
a 41 50 34
a 42 53 70
a 42 52 15
a 42 61 63
a 43 54 4
a 43 53 91
a 43 52 39
a 44 55 34
a 44 54 23
a 44 53 55
a 45 56 82
a 45 55 42
a 45 54 4
a 46 57 42
a 46 56 26
a 46 55 15
a 47 58 90
a 47 57 55
a 47 56 58
a 48 59 10
a 48 58 17
a 48 57 1
a 49 60 13
a 49 59 72
a 49 58 25
a 50 61 80
a 50 60 88
a 50 59 9
a 51 52 98
a 51 61 21
a 51 60 62
a 52 63 64
a 52 62 35
a 52 71 92
a 53 64 6
a 53 63 25
a 53 62 61
a 54 65 29
a 54 64 79
a 54 63 64
a 55 66 22
a 55 65 82
a 55 64 98
a 56 67 99
a 56 66 48
a 56 65 31
a 57 68 6
a 57 67 58
a 57 66 24
a 58 69 22
a 58 68 58
a 58 67 13
a 59 70 94
a 59 69 82
a 59 68 23
a 60 71 33
a 60 70 42
a 60 69 35
a 61 62 6
a 61 71 3
a 61 70 14
a 62 73 92
a 62 72 47
a 62 81 64
a 63 74 17
a 63 73 7
a 63 72 79
a 64 75 95
a 64 74 71
a 64 73 37
a 65 76 29
a 65 75 20
a 65 74 65
a 66 77 76
a 66 76 2
a 66 75 38
a 67 78 33
a 67 77 25
a 67 76 37
a 68 79 42
a 68 78 37
a 68 77 42
a 69 80 24
a 69 79 11
a 69 78 63
a 70 81 17
a 70 80 46
a 70 79 8
a 71 72 20
a 71 81 11
a 71 80 93
a 72 83 66
a 72 82 26
a 72 91 98
a 73 84 24
a 73 83 57
a 73 82 89
a 74 85 46
a 74 84 93
a 74 83 5
a 75 86 65
a 75 85 9
a 75 84 52
a 76 87 18
a 76 86 46
a 76 85 32
a 77 88 42
a 77 87 82
a 77 86 59
a 78 89 31
a 78 88 75
a 78 87 44
a 79 90 41
a 79 89 90
a 79 88 85
a 80 91 38
a 80 90 49
a 80 89 60
a 81 82 1
a 81 91 41
a 81 90 77
a 82 93 78
a 82 92 90
a 82 101 96
a 83 94 34
a 83 93 79
a 83 92 13
a 84 95 78
a 84 94 35
a 84 93 36
a 85 96 86
a 85 95 38
a 85 94 82
a 86 97 84
a 86 96 69
a 86 95 98
a 87 98 17
a 87 97 28
a 87 96 16
a 88 99 92
a 88 98 71
a 88 97 9
a 89 100 81
a 89 99 7
a 89 98 39
a 90 101 29
a 90 100 67
a 90 99 32
a 91 92 22
a 91 101 43
a 91 100 21
a 92 102 300
a 93 102 300
a 94 102 300
a 95 102 300
a 96 102 300
a 97 102 300
a 98 102 300
a 99 102 300
a 100 102 300
a 101 102 300
